seeds/non-incremental/QF_NIA/20170427-VeryMax/ITS/From_AProVE_2014__RSA.jar-obl-17__term_unfeasibility_0_0.smt2
(set-info :smt-lib-version 2.6)
(set-logic QF_NIA)
(set-info :source |
Generated by: Cristina Borralleras, Daniel Larraz, Albert Oliveras, Enric Rodriguez-Carbonell, Albert Rubio
Generated on: 2017-04-27
Generator: VeryMax
Application: Termination proving
Target solver: barcelogic
|)
(set-info :license "https://creativecommons.org/licenses/by/4.0/")
(set-info :category "industrial")
(set-info :status unknown)
(declare-fun Nl2arg11 () Int)
(declare-fun Nl2arg21 () Int)
(declare-fun Nl2arg31 () Int)
(declare-fun Nl2arg41 () Int)
(declare-fun Nl2arg51 () Int)
(declare-fun Nl2arg81 () Int)
(declare-fun Nl2arg91 () Int)
(declare-fun Nl2arg101 () Int)
(declare-fun Nl2arg111 () Int)
(declare-fun Nl2arg121 () Int)
(declare-fun Nl2arg131 () Int)
(declare-fun Nl2arg141 () Int)
(declare-fun Nl2arg151 () Int)
(declare-fun Nl2arg161 () Int)
(declare-fun Nl2arg171 () Int)
(declare-fun Nl2arg181 () Int)
(declare-fun Nl2arg191 () Int)
(declare-fun lam0n0 () Int)
(declare-fun lam0n1 () Int)
(declare-fun lam0n2 () Int)
(declare-fun lam0n3 () Int)
(declare-fun lam0n4 () Int)
(declare-fun lam0n5 () Int)
(declare-fun lam0n6 () Int)
(declare-fun lam0n12 () Int)
(declare-fun lam0n8 () Int)
(declare-fun lam0n9 () Int)
(declare-fun lam0n10 () Int)
(declare-fun lam0n11 () Int)
(declare-fun Nl2CT1 () Int)
(declare-fun lam0n7 () Int)
(declare-fun lam1n0 () Int)
(declare-fun lam1n1 () Int)
(declare-fun lam1n2 () Int)
(declare-fun lam1n3 () Int)
(declare-fun lam1n4 () Int)
(declare-fun lam1n5 () Int)
(declare-fun lam1n6 () Int)
(declare-fun lam1n12 () Int)
(declare-fun lam1n8 () Int)
(declare-fun lam1n9 () Int)
(declare-fun lam1n10 () Int)
(declare-fun lam1n11 () Int)
(declare-fun lam1n7 () Int)
(declare-fun lam2n0 () Int)
(declare-fun lam2n1 () Int)
(assert ( and ( <= ( - 143 ) Nl2arg11 ) ( <= Nl2arg11 143 ) ( <= ( - 143 ) Nl2arg21 ) ( <= Nl2arg21 143 ) ( <= ( - 143 ) Nl2arg31 ) ( <= Nl2arg31 143 ) ( <= ( - 143 ) Nl2arg41 ) ( <= Nl2arg41 143 ) ( <= ( - 143 ) Nl2arg51 ) ( <= Nl2arg51 143 ) ( <= ( - 143 ) Nl2arg81 ) ( <= Nl2arg81 143 ) ( <= ( - 143 ) Nl2arg91 ) ( <= Nl2arg91 143 ) ( <= ( - 143 ) Nl2arg101 ) ( <= Nl2arg101 143 ) ( <= ( - 143 ) Nl2arg111 ) ( <= Nl2arg111 143 ) ( <= ( - 143 ) Nl2arg121 ) ( <= Nl2arg121 143 ) ( <= ( - 143 ) Nl2arg131 ) ( <= Nl2arg131 143 ) ( <= ( - 143 ) Nl2arg141 ) ( <= Nl2arg141 143 ) ( <= ( - 143 ) Nl2arg151 ) ( <= Nl2arg151 143 ) ( <= ( - 143 ) Nl2arg161 ) ( <= Nl2arg161 143 ) ( <= ( - 143 ) Nl2arg171 ) ( <= Nl2arg171 143 ) ( <= ( - 143 ) Nl2arg181 ) ( <= Nl2arg181 143 ) ( <= ( - 143 ) Nl2arg191 ) ( <= Nl2arg191 143 ) ))
(assert ( or ( and ( >= lam0n0 0 ) ( >= lam0n1 0 ) ( >= lam0n2 0 ) ( >= lam0n3 0 ) ( >= lam0n4 0 ) ( >= lam0n5 0 ) ( >= lam0n6 0 ) ( >= lam0n12 0 ) ( > ( + ( * 1 lam0n0 ) ( * 2 lam0n3 ) ( * 145 lam0n4 ) ( * 145 lam0n5 ) ( * 145 lam0n6 ) ( * ( - 11 ) lam0n8 ) ( * ( - 13 ) lam0n9 ) ( * ( - 120 ) lam0n10 ) ( * ( - 143 ) lam0n11 ) ( * Nl2CT1 lam0n12 ) ( - 1 ) ) 0 ) ( = ( + ( * ( - 1 ) lam0n1 ) ( * ( - 1 ) lam0n2 ) ( * ( - 1 ) lam0n3 ) ( * ( - 1 ) lam0n4 ) ( * Nl2arg11 lam0n12 ) ) 0 ) ( = ( * Nl2arg21 lam0n12 ) 0 ) ( = ( * Nl2arg31 lam0n12 ) 0 ) ( = ( * Nl2arg41 lam0n12 ) 0 ) ( = ( + ( * ( - 1 ) lam0n0 ) ( * Nl2arg51 lam0n12 ) ) 0 ) ( = ( + ( * 1 lam0n8 ) ( * Nl2arg81 lam0n12 ) ) 0 ) ( = ( + ( * 1 lam0n9 ) ( * Nl2arg91 lam0n12 ) ) 0 ) ( = ( + ( * 1 lam0n10 ) ( * Nl2arg101 lam0n12 ) ) 0 ) ( = ( + ( * 1 lam0n3 ) ( * Nl2arg111 lam0n12 ) ) 0 ) ( = ( + ( * 1 lam0n7 ) ( * Nl2arg121 lam0n12 ) ) 0 ) ( = ( + ( * 1 lam0n11 ) ( * Nl2arg131 lam0n12 ) ) 0 ) ( = ( * Nl2arg141 lam0n12 ) 0 ) ( = ( * Nl2arg151 lam0n12 ) 0 ) ( = ( * Nl2arg161 lam0n12 ) 0 ) ( = ( * Nl2arg171 lam0n12 ) 0 ) ( = ( * Nl2arg181 lam0n12 ) 0 ) ( = ( * Nl2arg191 lam0n12 ) 0 ) ( = ( + ( * 1 lam0n1 ) ( * ( - 1 ) lam0n5 ) ) 0 ) ( = ( + ( * 1 lam0n2 ) ( * ( - 1 ) lam0n6 ) ) 0 ) ) ( and ( >= lam1n0 0 ) ( >= lam1n1 0 ) ( >= lam1n2 0 ) ( >= lam1n3 0 ) ( >= lam1n4 0 ) ( >= lam1n5 0 ) ( >= lam1n6 0 ) ( >= lam1n12 0 ) ( > ( + ( * 1 lam1n0 ) ( * 2 lam1n3 ) ( * 145 lam1n4 ) ( * 145 lam1n5 ) ( * 145 lam1n6 ) ( * ( - 11 ) lam1n8 ) ( * ( - 13 ) lam1n9 ) ( * ( - 120 ) lam1n10 ) ( * ( - 143 ) lam1n11 ) ( * Nl2CT1 lam1n12 ) ( - 1 ( + ( + ( + ( + ( + ( + ( + ( + ( + ( + ( + ( + ( + ( + ( + ( + Nl2CT1 ( * Nl2arg11 0 ) ) ( * Nl2arg21 0 ) ) ( * Nl2arg31 0 ) ) ( * Nl2arg41 0 ) ) ( * Nl2arg51 0 ) ) ( * Nl2arg81 11 ) ) ( * Nl2arg91 13 ) ) ( * Nl2arg101 120 ) ) ( * Nl2arg121 0 ) ) ( * Nl2arg131 143 ) ) ( * Nl2arg141 0 ) ) ( * Nl2arg151 0 ) ) ( * Nl2arg161 0 ) ) ( * Nl2arg171 0 ) ) ( * Nl2arg181 0 ) ) ( * Nl2arg191 0 ) ) ) ) 0 ) ( = ( + ( * ( - 1 ) lam1n1 ) ( * ( - 1 ) lam1n2 ) ( * ( - 1 ) lam1n3 ) ( * ( - 1 ) lam1n4 ) ( * Nl2arg11 lam1n12 ) ) 0 ) ( = ( * Nl2arg21 lam1n12 ) 0 ) ( = ( * Nl2arg31 lam1n12 ) 0 ) ( = ( + ( * Nl2arg41 lam1n12 ) ( - ( + 0 ( * Nl2arg31 1 ) ) ) ) 0 ) ( = ( + ( * ( - 1 ) lam1n0 ) ( * Nl2arg51 lam1n12 ) ( - ( + 0 ( * Nl2arg21 1 ) ) ) ) 0 ) ( = ( + ( * 1 lam1n8 ) ( * Nl2arg81 lam1n12 ) ) 0 ) ( = ( + ( * 1 lam1n9 ) ( * Nl2arg91 lam1n12 ) ) 0 ) ( = ( + ( * 1 lam1n10 ) ( * Nl2arg101 lam1n12 ) ) 0 ) ( = ( + ( * 1 lam1n3 ) ( * Nl2arg111 lam1n12 ) ( - ( + 0 Nl2arg111 ) ) ) 0 ) ( = ( + ( * 1 lam1n7 ) ( * Nl2arg121 lam1n12 ) ) 0 ) ( = ( + ( * 1 lam1n11 ) ( * Nl2arg131 lam1n12 ) ) 0 ) ( = ( * Nl2arg141 lam1n12 ) 0 ) ( = ( * Nl2arg151 lam1n12 ) 0 ) ( = ( * Nl2arg161 lam1n12 ) 0 ) ( = ( * Nl2arg171 lam1n12 ) 0 ) ( = ( * Nl2arg181 lam1n12 ) 0 ) ( = ( * Nl2arg191 lam1n12 ) 0 ) ( = ( + ( * 1 lam1n1 ) ( * ( - 1 ) lam1n5 ) ) 0 ) ( = ( + ( * 1 lam1n2 ) ( * ( - 1 ) lam1n6 ) ( - ( + 0 ( * Nl2arg11 1 ) ) ) ) 0 ) ( = ( - ( + 0 ( * Nl2arg141 1 ) ) ) 0 ) ( = ( - ( + 0 ( * Nl2arg151 1 ) ) ) 0 ) ( = ( - ( + 0 ( * Nl2arg161 1 ) ) ) 0 ) ( = ( - ( + 0 ( * Nl2arg171 1 ) ) ) 0 ) ( = ( - ( + 0 ( * Nl2arg181 1 ) ) ) 0 ) ( = ( - ( + 0 ( * Nl2arg191 1 ) ) ) 0 ) ( = ( - ( + 0 ( * Nl2arg41 1 ) ) ) 0 ) ( = ( - ( + 0 ( * Nl2arg51 1 ) ) ) 0 ) ) ))
(assert ( and ( >= lam2n0 0 ) ( >= lam2n1 0 ) ( > ( + ( * 1 lam2n0 ) ( * 145 lam2n1 ) ( - 1 ( + ( + ( + ( + ( + ( + ( + ( + ( + ( + ( + ( + ( + ( + ( + ( + ( + Nl2CT1 ( * Nl2arg11 0 ) ) ( * Nl2arg21 0 ) ) ( * Nl2arg31 1 ) ) ( * Nl2arg41 0 ) ) ( * Nl2arg51 120 ) ) ( * Nl2arg81 11 ) ) ( * Nl2arg91 13 ) ) ( * Nl2arg101 120 ) ) ( * Nl2arg111 0 ) ) ( * Nl2arg121 0 ) ) ( * Nl2arg131 143 ) ) ( * Nl2arg141 0 ) ) ( * Nl2arg151 0 ) ) ( * Nl2arg161 0 ) ) ( * Nl2arg171 0 ) ) ( * Nl2arg181 0 ) ) ( * Nl2arg191 0 ) ) ) ) 0 ) ( = ( + ( * ( - 1 ) lam2n1 ) ( - ( + 0 ( * Nl2arg11 1 ) ) ) ) 0 ) ( = ( - ( + ( + 0 ( * Nl2arg21 1 ) ) ( * Nl2arg111 1 ) ) ) 0 ) ( = ( - ( + 0 ( * Nl2arg141 1 ) ) ) 0 ) ( = ( - ( + 0 ( * Nl2arg151 1 ) ) ) 0 ) ( = ( - ( + 0 ( * Nl2arg161 1 ) ) ) 0 ) ( = ( - ( + 0 ( * Nl2arg171 1 ) ) ) 0 ) ( = ( - ( + 0 ( * Nl2arg181 1 ) ) ) 0 ) ( = ( - ( + 0 ( * Nl2arg191 1 ) ) ) 0 ) ( = ( * ( - 1 ) lam2n0 ) 0 ) ))
(assert ( and ( >= lam0n0 0 ) ( >= lam0n1 0 ) ( >= lam0n2 0 ) ( >= lam0n3 0 ) ( >= lam0n4 0 ) ( >= lam0n5 0 ) ( >= lam0n6 0 ) ( >= lam0n12 0 ) ( > ( + ( * 1 lam0n0 ) ( * 2 lam0n3 ) ( * 145 lam0n4 ) ( * 145 lam0n5 ) ( * 145 lam0n6 ) ( * ( - 11 ) lam0n8 ) ( * ( - 13 ) lam0n9 ) ( * ( - 120 ) lam0n10 ) ( * ( - 143 ) lam0n11 ) ( * Nl2CT1 lam0n12 ) ( - 1 ) ) 0 ) ( = ( + ( * ( - 1 ) lam0n1 ) ( * ( - 1 ) lam0n2 ) ( * ( - 1 ) lam0n3 ) ( * ( - 1 ) lam0n4 ) ( * Nl2arg11 lam0n12 ) ) 0 ) ( = ( * Nl2arg21 lam0n12 ) 0 ) ( = ( * Nl2arg31 lam0n12 ) 0 ) ( = ( * Nl2arg41 lam0n12 ) 0 ) ( = ( + ( * ( - 1 ) lam0n0 ) ( * Nl2arg51 lam0n12 ) ) 0 ) ( = ( + ( * 1 lam0n8 ) ( * Nl2arg81 lam0n12 ) ) 0 ) ( = ( + ( * 1 lam0n9 ) ( * Nl2arg91 lam0n12 ) ) 0 ) ( = ( + ( * 1 lam0n10 ) ( * Nl2arg101 lam0n12 ) ) 0 ) ( = ( + ( * 1 lam0n3 ) ( * Nl2arg111 lam0n12 ) ) 0 ) ( = ( + ( * 1 lam0n7 ) ( * Nl2arg121 lam0n12 ) ) 0 ) ( = ( + ( * 1 lam0n11 ) ( * Nl2arg131 lam0n12 ) ) 0 ) ( = ( * Nl2arg141 lam0n12 ) 0 ) ( = ( * Nl2arg151 lam0n12 ) 0 ) ( = ( * Nl2arg161 lam0n12 ) 0 ) ( = ( * Nl2arg171 lam0n12 ) 0 ) ( = ( * Nl2arg181 lam0n12 ) 0 ) ( = ( * Nl2arg191 lam0n12 ) 0 ) ( = ( + ( * 1 lam0n1 ) ( * ( - 1 ) lam0n5 ) ) 0 ) ( = ( + ( * 1 lam0n2 ) ( * ( - 1 ) lam0n6 ) ) 0 ) ))
(check-sat)
(exit)
